25 1 9 1 9 1 12 1 12 1 17 1 17 1 16 1 16 1 14 1 9 1 14 5 
25 1 14 1 14 1 16 1 16 1 21 1 21 1 16 1 16 1 12 1 9 1 12 5
25 1 9 1 9 1 12 1 12 1 17 1 17 1 16 1 16 1 14 1 9 1 14 5 
14 1 16 5 15 1 16 1 21 3 19 3 17 5 
25 1 9 1 9 1 12 1 12 1 17 1 17 1 16 1 16 1 14 1 9 1 14 5 
25 1 14 1 14 1 16 1 16 1 21 1 21 1 16 1 16 1 12 1 9 1 12 5
25 1 9 1 9 1 12 1 12 1 17 1 17 1 16 1 16 1 14 1 9 1 14 5 
14 1 16 5 15 1 16 1 21 3 19 3 17 5 
21 1 19 0 17 2 16 1 14 1 14 1 14 1 14 1 14 1 21 3 19 5 
19 1 17 0 16 2 14 1 12 1 12 1 12 1 12 1 12 1 19 3 17 5 
25 1 17 1 17 1 12 1 12 1 4 1 9 3 7 1 14 5 14 3 14 1 14 1 14 0 17 2 14 1 17 1 14 1 
17 1 17 1 17 1 17 1 21 1 19 3 19 3 
12 1 21 1 19 0 17 2 19 1 21 1 12 1 19 1 21 3 12 1 19 1 21 3 
19 1 19 1 21 0 22 2 21 1 19 1 16 1 17 1 9 1 14 1 17 3 9 1 14 1 16 3 
16 1 16 1 21 0 24 2 21 1 17 1 16 1 14 1 22 0 22 2 25 1 
24 1 22 1 20 1 12 1 21 0 21 2 
22 1 21 1 19 1 10 1 19 0 19 2 
19 1 17 1 21 3 19 3 17 3 19 2 17 3 
25 1 9 1 9 1 12 1 12 1 17 1 17 1 16 1 16 1 14 1 9 1 14 5 
25 1 14 1 14 1 16 1 16 1 21 1 21 1 16 1 16 1 12 1 9 1 12 5
25 1 9 1 9 1 12 1 12 1 17 1 17 1 16 1 16 1 14 1 9 1 14 5 
14 1 16 5 15 1 16 1 21 3 19 3 17 5 
25 1 9 1 9 1 12 1 12 1 17 1 17 1 16 1 16 1 14 1 9 1 14 5 
25 1 14 1 14 1 16 1 16 1 21 1 21 1 16 1 16 1 12 1 9 1 12 5
25 1 9 1 9 1 12 1 12 1 17 1 17 1 16 1 16 1 14 1 9 1 14 5 
14 1 16 5 15 1 16 1 21 3 19 3 17 5 
21 1 19 0 17 2 16 1 14 1 14 1 14 1 14 1 14 1 21 3 19 5 
19 1 17 0 16 2 14 1 12 1 12 1 12 1 12 1 12 1 19 3 17 5 
25 1 17 1 17 1 12 1 12 1 4 1 9 3 7 1 14 5 14 3 14 1 14 1 14 0 17 2 14 1 17 1 14 1 
17 1 17 1 17 1 17 1 21 1 19 3 19 3 
12 1 21 1 19 0 17 2 19 1 21 1 12 1 19 1 21 3 12 1 19 1 21 3 
19 1 19 1 21 0 22 2 21 1 19 1 16 1 17 1 9 1 14 1 17 3 9 1 14 1 16 3 
16 1 16 1 21 0 24 2 21 1 17 1 16 1 14 1 22 0 22 2 25 1 
24 1 22 1 20 1 12 1 21 0 21 2 
22 1 21 1 19 1 10 1 19 0 19 2 
19 1 17 1 21 3 19 3 17 3 19 2 17 3 